NAME : portcgen-22-16
COMMENT : portcgen N=22, seed=16
TYPE : TSP
DIMENSION : 22
EDGE_WEIGHT_TYPE : EUC_2D
NODE_COORD_SECTION
1 -61375 -81208
2 -139533 -201224
3 285202 -71308
4 -244797 201953
5 151660 7726
6 -423817 186054
7 93862 223100
8 106925 270652
9 -107650 -127585
10 -78567 438279
11 58346 -113079
12 62486 -173981
13 -435997 151773
14 541116 -57179
15 180611 -185701
16 137537 -55324
17 217574 -62518
18 -186115 39661
19 -177349 90158
20 -99324 -218902
21 210704 59888
22 315746 -426041
